
 param N:= 15;
 param M:= 15;

 param B_c := 34;

 param B_CPU := 56;

 param B_m := 11;

 param: w cpu m:= 
1 	 17	 12 	 1
2 	 10	 6 	 1
3 	 7	 10 	 3
4 	 17	 1 	 2
5 	 13	 3 	 2
6 	 14	 10 	 3
7 	 4	 9 	 1
8 	 3	 6 	 1
9 	 14	 13 	 3
10 	 9	 11 	 1
11 	 9	 11 	 2
12 	 7	 10 	 4
13 	 13	 6 	 1
14 	 3	 14 	 2
15 	 9	 14 	 1
;